instances/knapsack/discrete/knapsack_60_13.lp
\ Model knapsack_60_13
\ LP format - for model browsing. Use MPS format to capture full model detail.
\ Signature: 0x44a844bc7146bef8
Minimize
  - 83 x[0] - 71 x[1] - 9 x[2] - 65 x[3] - 18 x[4] - 74 x[5] - 50 x[6]
   - 36 x[7] - 55 x[8] - 63 x[9] - 44 x[10] - 28 x[11] - 36 x[12]
   - 83 x[13] - 36 x[14] - 21 x[15] - 19 x[16] - 63 x[17] - 83 x[18]
   - 98 x[19] - 54 x[20] - 24 x[21] - 41 x[22] - 9 x[23] - 34 x[24]
   - 31 x[25] - 61 x[26] - 36 x[27] - 99 x[28] - 29 x[29] - 26 x[30]
   - 41 x[31] - 89 x[32] - 32 x[33] - 24 x[34] - 38 x[35] - 6 x[36]
   - 20 x[37] - 15 x[38] - 16 x[39] - 81 x[40] - 42 x[41] - 90 x[42]
   - 20 x[43] - 59 x[44] - 84 x[45] - 37 x[46] - 37 x[47] - 53 x[48]
   - 70 x[49] - 32 x[50] - 23 x[51] - 60 x[52] - 98 x[53] - 9 x[54]
   - 39 x[55] - 3 x[56] - 53 x[57] - 5 x[58] - 72 x[59]
Subject To
 primal_upper: 58 x[0] + 11 x[1] + 57 x[2] + 46 x[3] + 59 x[4] + 100 x[5]
   + 24 x[6] + 18 x[7] + 76 x[8] + 77 x[9] + 58 x[10] + 34 x[11] + 39 x[12]
   + 7 x[13] + 3 x[14] + 71 x[15] + 88 x[16] + 67 x[17] + 24 x[18]
   + 69 x[19] + 96 x[20] + 30 x[21] + 39 x[22] + 21 x[23] + 39 x[24]
   + 23 x[25] + 45 x[26] + 78 x[27] + 40 x[28] + 26 x[29] + 84 x[30]
   + 30 x[31] + 86 x[32] + 40 x[33] + 55 x[34] + 20 x[35] + 59 x[36]
   + 15 x[37] + 3 x[38] + 53 x[39] + 78 x[40] + 48 x[41] + 69 x[42]
   + 80 x[43] + 10 x[44] + 13 x[45] + 96 x[46] + 16 x[47] + 78 x[48]
   + 59 x[49] + 77 x[50] + 47 x[51] + 36 x[52] + 15 x[53] + 3 x[54]
   + 10 x[55] + 64 x[56] + 73 x[57] + 35 x[58] + 73 x[59] + 5.8 r[0]
   + 1.1 r[1] + 5.7 r[2] + 4.6 r[3] + 5.9 r[4] + 10 r[5] + 2.4 r[6]
   + 1.8 r[7] + 7.6 r[8] + 7.7 r[9] + 5.8 r[10] + 3.4 r[11] + 3.9 r[12]
   + 0.7 r[13] + 0.3 r[14] + 7.1 r[15] + 8.8 r[16] + 6.7 r[17] + 2.4 r[18]
   + 6.9 r[19] + 9.6 r[20] + 3 r[21] + 3.9 r[22] + 2.1 r[23] + 3.9 r[24]
   + 2.3 r[25] + 4.5 r[26] + 7.8 r[27] + 4 r[28] + 2.6 r[29] + 8.4 r[30]
   + 3 r[31] + 8.6 r[32] + 4 r[33] + 5.5 r[34] + 2 r[35] + 5.9 r[36]
   + 1.5 r[37] + 0.3 r[38] + 5.3 r[39] + 7.8 r[40] + 4.8 r[41] + 6.9 r[42]
   + 8 r[43] + r[44] + 1.3 r[45] + 9.6 r[46] + 1.6 r[47] + 7.8 r[48]
   + 5.9 r[49] + 7.7 r[50] + 4.7 r[51] + 3.6 r[52] + 1.5 r[53] + 0.3 r[54]
   + r[55] + 6.4 r[56] + 7.3 r[57] + 3.5 r[58] + 7.3 r[59] <= 271
 primal_lower: 0.5129771220382462 x[0] + 1.122894480879321 x[1]
   + 2.007808352245196 x[2] + 4.261431352545854 x[3]
   + 4.062937496579962 x[4] + 2.383232351341455 x[5]
   + 0.5573783981632815 x[6] + 4.046717626540344 x[7]
   + 3.554189555671506 x[8] + 4.050611405705906 x[9]
   + 3.218873670891738 x[10] + 3.763333101050427 x[11]
   + 0.1030874717766541 x[12] + 2.735161063912646 x[13]
   + 3.412909043515983 x[14] + 3.15796144581202 x[15]
   + 0.2716795294109187 x[16] + 0.495657081580443 x[17]
   + 4.648639417562951 x[18] + 2.888995441639567 x[19]
   + 0.4894879906070497 x[20] + 3.539185238557748 x[21]
   + 2.509623324349971 x[22] + 1.842097881307571 x[23]
   + 2.702272441815021 x[24] + 1.244173251027513 x[25]
   + 1.92785821909417 x[26] + 0.3018855207057505 x[27]
   + 0.1751005855802225 x[28] + 0.3879346942669367 x[29]
   + 0.4152151955629212 x[30] + 3.201001407792636 x[31]
   + 1.952439665463463 x[32] + 0.9699233802989765 x[33]
   + 2.24213783154058 x[34] + 1.769691310587693 x[35]
   + 3.139079112161132 x[36] + 1.400007722644185 x[37]
   + 4.340858848230887 x[38] + 2.310668800206606 x[39]
   + 0.9512671015887841 x[40] + 4.781077965726801 x[41]
   + 1.93335882724737 x[42] + 4.799701361484837 x[43]
   + 3.570475420029603 x[44] + 2.747101385219535 x[45]
   + 2.320838488167806 x[46] + 4.165835249925002 x[47]
   + 1.131543849238868 x[48] + 0.0980803498529498 x[49]
   + 2.290304353899698 x[50] + 0.5355581952804742 x[51]
   + 4.22037821027131 x[52] + 4.730556844135369 x[53]
   + 3.503885573548569 x[54] + 1.187863244975531 x[55]
   + 1.100622727563867 x[56] + 4.104933965351417 x[57]
   + 2.233746070974489 x[58] + 0.6698437781253448 x[59] + 86 u[0] + 42 u[1]
   + 68 u[2] + 81 u[3] + 66 u[4] + 64 u[5] + 27 u[6] + 98 u[7] + 55 u[8]
   + 96 u[9] + 78 u[10] + 17 u[11] + 66 u[12] + 50 u[13] + 3 u[14]
   + 35 u[15] + 47 u[16] + 2 u[17] + 11 u[18] + 20 u[19] + 63 u[20]
   + 86 u[21] + 86 u[22] + 61 u[23] + 55 u[24] + 82 u[25] + 4 u[26]
   + 98 u[27] + 8 u[28] + 77 u[29] + 20 u[30] + 2 u[31] + 22 u[32]
   + 83 u[33] + 22 u[34] + 87 u[35] + 86 u[36] + 19 u[37] + 66 u[38]
   + 73 u[39] + 25 u[40] + 56 u[41] + 44 u[42] + 48 u[43] + 53 u[44]
   + 13 u[45] + 84 u[46] + 52 u[47] + 57 u[48] + 38 u[49] + 93 u[50]
   + 26 u[51] + 79 u[52] + 78 u[53] + 43 u[54] + 34 u[55] + 63 u[56]
   + 5 u[57] + 54 u[58] + 36 u[59] <= 19558
 mccormick1[0]: - u[0] + r[0] <= 0
 mccormick1[1]: - u[1] + r[1] <= 0
 mccormick1[2]: - u[2] + r[2] <= 0
 mccormick1[3]: - u[3] + r[3] <= 0
 mccormick1[4]: - u[4] + r[4] <= 0
 mccormick1[5]: - u[5] + r[5] <= 0
 mccormick1[6]: - u[6] + r[6] <= 0
 mccormick1[7]: - u[7] + r[7] <= 0
 mccormick1[8]: - u[8] + r[8] <= 0
 mccormick1[9]: - u[9] + r[9] <= 0
 mccormick1[10]: - u[10] + r[10] <= 0
 mccormick1[11]: - u[11] + r[11] <= 0
 mccormick1[12]: - u[12] + r[12] <= 0
 mccormick1[13]: - u[13] + r[13] <= 0
 mccormick1[14]: - u[14] + r[14] <= 0
 mccormick1[15]: - u[15] + r[15] <= 0
 mccormick1[16]: - u[16] + r[16] <= 0
 mccormick1[17]: - u[17] + r[17] <= 0
 mccormick1[18]: - u[18] + r[18] <= 0
 mccormick1[19]: - u[19] + r[19] <= 0
 mccormick1[20]: - u[20] + r[20] <= 0
 mccormick1[21]: - u[21] + r[21] <= 0
 mccormick1[22]: - u[22] + r[22] <= 0
 mccormick1[23]: - u[23] + r[23] <= 0
 mccormick1[24]: - u[24] + r[24] <= 0
 mccormick1[25]: - u[25] + r[25] <= 0
 mccormick1[26]: - u[26] + r[26] <= 0
 mccormick1[27]: - u[27] + r[27] <= 0
 mccormick1[28]: - u[28] + r[28] <= 0
 mccormick1[29]: - u[29] + r[29] <= 0
 mccormick1[30]: - u[30] + r[30] <= 0
 mccormick1[31]: - u[31] + r[31] <= 0
 mccormick1[32]: - u[32] + r[32] <= 0
 mccormick1[33]: - u[33] + r[33] <= 0
 mccormick1[34]: - u[34] + r[34] <= 0
 mccormick1[35]: - u[35] + r[35] <= 0
 mccormick1[36]: - u[36] + r[36] <= 0
 mccormick1[37]: - u[37] + r[37] <= 0
 mccormick1[38]: - u[38] + r[38] <= 0
 mccormick1[39]: - u[39] + r[39] <= 0
 mccormick1[40]: - u[40] + r[40] <= 0
 mccormick1[41]: - u[41] + r[41] <= 0
 mccormick1[42]: - u[42] + r[42] <= 0
 mccormick1[43]: - u[43] + r[43] <= 0
 mccormick1[44]: - u[44] + r[44] <= 0
 mccormick1[45]: - u[45] + r[45] <= 0
 mccormick1[46]: - u[46] + r[46] <= 0
 mccormick1[47]: - u[47] + r[47] <= 0
 mccormick1[48]: - u[48] + r[48] <= 0
 mccormick1[49]: - u[49] + r[49] <= 0
 mccormick1[50]: - u[50] + r[50] <= 0
 mccormick1[51]: - u[51] + r[51] <= 0
 mccormick1[52]: - u[52] + r[52] <= 0
 mccormick1[53]: - u[53] + r[53] <= 0
 mccormick1[54]: - u[54] + r[54] <= 0
 mccormick1[55]: - u[55] + r[55] <= 0
 mccormick1[56]: - u[56] + r[56] <= 0
 mccormick1[57]: - u[57] + r[57] <= 0
 mccormick1[58]: - u[58] + r[58] <= 0
 mccormick1[59]: - u[59] + r[59] <= 0
 mccormick2[0]: - x[0] + r[0] <= 0
 mccormick2[1]: - x[1] + r[1] <= 0
 mccormick2[2]: - x[2] + r[2] <= 0
 mccormick2[3]: - x[3] + r[3] <= 0
 mccormick2[4]: - x[4] + r[4] <= 0
 mccormick2[5]: - x[5] + r[5] <= 0
 mccormick2[6]: - x[6] + r[6] <= 0
 mccormick2[7]: - x[7] + r[7] <= 0
 mccormick2[8]: - x[8] + r[8] <= 0
 mccormick2[9]: - x[9] + r[9] <= 0
 mccormick2[10]: - x[10] + r[10] <= 0
 mccormick2[11]: - x[11] + r[11] <= 0
 mccormick2[12]: - x[12] + r[12] <= 0
 mccormick2[13]: - x[13] + r[13] <= 0
 mccormick2[14]: - x[14] + r[14] <= 0
 mccormick2[15]: - x[15] + r[15] <= 0
 mccormick2[16]: - x[16] + r[16] <= 0
 mccormick2[17]: - x[17] + r[17] <= 0
 mccormick2[18]: - x[18] + r[18] <= 0
 mccormick2[19]: - x[19] + r[19] <= 0
 mccormick2[20]: - x[20] + r[20] <= 0
 mccormick2[21]: - x[21] + r[21] <= 0
 mccormick2[22]: - x[22] + r[22] <= 0
 mccormick2[23]: - x[23] + r[23] <= 0
 mccormick2[24]: - x[24] + r[24] <= 0
 mccormick2[25]: - x[25] + r[25] <= 0
 mccormick2[26]: - x[26] + r[26] <= 0
 mccormick2[27]: - x[27] + r[27] <= 0
 mccormick2[28]: - x[28] + r[28] <= 0
 mccormick2[29]: - x[29] + r[29] <= 0
 mccormick2[30]: - x[30] + r[30] <= 0
 mccormick2[31]: - x[31] + r[31] <= 0
 mccormick2[32]: - x[32] + r[32] <= 0
 mccormick2[33]: - x[33] + r[33] <= 0
 mccormick2[34]: - x[34] + r[34] <= 0
 mccormick2[35]: - x[35] + r[35] <= 0
 mccormick2[36]: - x[36] + r[36] <= 0
 mccormick2[37]: - x[37] + r[37] <= 0
 mccormick2[38]: - x[38] + r[38] <= 0
 mccormick2[39]: - x[39] + r[39] <= 0
 mccormick2[40]: - x[40] + r[40] <= 0
 mccormick2[41]: - x[41] + r[41] <= 0
 mccormick2[42]: - x[42] + r[42] <= 0
 mccormick2[43]: - x[43] + r[43] <= 0
 mccormick2[44]: - x[44] + r[44] <= 0
 mccormick2[45]: - x[45] + r[45] <= 0
 mccormick2[46]: - x[46] + r[46] <= 0
 mccormick2[47]: - x[47] + r[47] <= 0
 mccormick2[48]: - x[48] + r[48] <= 0
 mccormick2[49]: - x[49] + r[49] <= 0
 mccormick2[50]: - x[50] + r[50] <= 0
 mccormick2[51]: - x[51] + r[51] <= 0
 mccormick2[52]: - x[52] + r[52] <= 0
 mccormick2[53]: - x[53] + r[53] <= 0
 mccormick2[54]: - x[54] + r[54] <= 0
 mccormick2[55]: - x[55] + r[55] <= 0
 mccormick2[56]: - x[56] + r[56] <= 0
 mccormick2[57]: - x[57] + r[57] <= 0
 mccormick2[58]: - x[58] + r[58] <= 0
 mccormick2[59]: - x[59] + r[59] <= 0
 mccormick3[0]: x[0] + u[0] - r[0] <= 1
 mccormick3[1]: x[1] + u[1] - r[1] <= 1
 mccormick3[2]: x[2] + u[2] - r[2] <= 1
 mccormick3[3]: x[3] + u[3] - r[3] <= 1
 mccormick3[4]: x[4] + u[4] - r[4] <= 1
 mccormick3[5]: x[5] + u[5] - r[5] <= 1
 mccormick3[6]: x[6] + u[6] - r[6] <= 1
 mccormick3[7]: x[7] + u[7] - r[7] <= 1
 mccormick3[8]: x[8] + u[8] - r[8] <= 1
 mccormick3[9]: x[9] + u[9] - r[9] <= 1
 mccormick3[10]: x[10] + u[10] - r[10] <= 1
 mccormick3[11]: x[11] + u[11] - r[11] <= 1
 mccormick3[12]: x[12] + u[12] - r[12] <= 1
 mccormick3[13]: x[13] + u[13] - r[13] <= 1
 mccormick3[14]: x[14] + u[14] - r[14] <= 1
 mccormick3[15]: x[15] + u[15] - r[15] <= 1
 mccormick3[16]: x[16] + u[16] - r[16] <= 1
 mccormick3[17]: x[17] + u[17] - r[17] <= 1
 mccormick3[18]: x[18] + u[18] - r[18] <= 1
 mccormick3[19]: x[19] + u[19] - r[19] <= 1
 mccormick3[20]: x[20] + u[20] - r[20] <= 1
 mccormick3[21]: x[21] + u[21] - r[21] <= 1
 mccormick3[22]: x[22] + u[22] - r[22] <= 1
 mccormick3[23]: x[23] + u[23] - r[23] <= 1
 mccormick3[24]: x[24] + u[24] - r[24] <= 1
 mccormick3[25]: x[25] + u[25] - r[25] <= 1
 mccormick3[26]: x[26] + u[26] - r[26] <= 1
 mccormick3[27]: x[27] + u[27] - r[27] <= 1
 mccormick3[28]: x[28] + u[28] - r[28] <= 1
 mccormick3[29]: x[29] + u[29] - r[29] <= 1
 mccormick3[30]: x[30] + u[30] - r[30] <= 1
 mccormick3[31]: x[31] + u[31] - r[31] <= 1
 mccormick3[32]: x[32] + u[32] - r[32] <= 1
 mccormick3[33]: x[33] + u[33] - r[33] <= 1
 mccormick3[34]: x[34] + u[34] - r[34] <= 1
 mccormick3[35]: x[35] + u[35] - r[35] <= 1
 mccormick3[36]: x[36] + u[36] - r[36] <= 1
 mccormick3[37]: x[37] + u[37] - r[37] <= 1
 mccormick3[38]: x[38] + u[38] - r[38] <= 1
 mccormick3[39]: x[39] + u[39] - r[39] <= 1
 mccormick3[40]: x[40] + u[40] - r[40] <= 1
 mccormick3[41]: x[41] + u[41] - r[41] <= 1
 mccormick3[42]: x[42] + u[42] - r[42] <= 1
 mccormick3[43]: x[43] + u[43] - r[43] <= 1
 mccormick3[44]: x[44] + u[44] - r[44] <= 1
 mccormick3[45]: x[45] + u[45] - r[45] <= 1
 mccormick3[46]: x[46] + u[46] - r[46] <= 1
 mccormick3[47]: x[47] + u[47] - r[47] <= 1
 mccormick3[48]: x[48] + u[48] - r[48] <= 1
 mccormick3[49]: x[49] + u[49] - r[49] <= 1
 mccormick3[50]: x[50] + u[50] - r[50] <= 1
 mccormick3[51]: x[51] + u[51] - r[51] <= 1
 mccormick3[52]: x[52] + u[52] - r[52] <= 1
 mccormick3[53]: x[53] + u[53] - r[53] <= 1
 mccormick3[54]: x[54] + u[54] - r[54] <= 1
 mccormick3[55]: x[55] + u[55] - r[55] <= 1
 mccormick3[56]: x[56] + u[56] - r[56] <= 1
 mccormick3[57]: x[57] + u[57] - r[57] <= 1
 mccormick3[58]: x[58] + u[58] - r[58] <= 1
 mccormick3[59]: x[59] + u[59] - r[59] <= 1
Bounds
Binaries
 x[0] x[1] x[2] x[3] x[4] x[5] x[6] x[7] x[8] x[9] x[10] x[11] x[12] x[13]
 x[14] x[15] x[16] x[17] x[18] x[19] x[20] x[21] x[22] x[23] x[24] x[25]
 x[26] x[27] x[28] x[29] x[30] x[31] x[32] x[33] x[34] x[35] x[36] x[37]
 x[38] x[39] x[40] x[41] x[42] x[43] x[44] x[45] x[46] x[47] x[48] x[49]
 x[50] x[51] x[52] x[53] x[54] x[55] x[56] x[57] x[58] x[59] u[0] u[1] u[2]
 u[3] u[4] u[5] u[6] u[7] u[8] u[9] u[10] u[11] u[12] u[13] u[14] u[15]
 u[16] u[17] u[18] u[19] u[20] u[21] u[22] u[23] u[24] u[25] u[26] u[27]
 u[28] u[29] u[30] u[31] u[32] u[33] u[34] u[35] u[36] u[37] u[38] u[39]
 u[40] u[41] u[42] u[43] u[44] u[45] u[46] u[47] u[48] u[49] u[50] u[51]
 u[52] u[53] u[54] u[55] u[56] u[57] u[58] u[59] r[0] r[1] r[2] r[3] r[4]
 r[5] r[6] r[7] r[8] r[9] r[10] r[11] r[12] r[13] r[14] r[15] r[16] r[17]
 r[18] r[19] r[20] r[21] r[22] r[23] r[24] r[25] r[26] r[27] r[28] r[29]
 r[30] r[31] r[32] r[33] r[34] r[35] r[36] r[37] r[38] r[39] r[40] r[41]
 r[42] r[43] r[44] r[45] r[46] r[47] r[48] r[49] r[50] r[51] r[52] r[53]
 r[54] r[55] r[56] r[57] r[58] r[59]
End
