instances/knapsack/discrete/knapsack_60_13.kp
68643
60
271

58 5.8 83
11 1.1 71
57 5.7 9
46 4.6 65
59 5.9 18
100 10.0 74
24 2.4 50
18 1.8 36
76 7.6 55
77 7.7 63
58 5.8 44
34 3.4 28
39 3.9 36
7 0.7 83
3 0.3 36
71 7.1 21
88 8.8 19
67 6.7 63
24 2.4 83
69 6.9 98
96 9.6 54
30 3.0 24
39 3.9 41
21 2.1 9
39 3.9 34
23 2.3 31
45 4.5 61
78 7.8 36
40 4.0 99
26 2.6 29
84 8.4 26
30 3.0 41
86 8.6 89
40 4.0 32
55 5.5 24
20 2.0 38
59 5.9 6
15 1.5 20
3 0.3 15
53 5.3 16
78 7.8 81
48 4.8 42
69 6.9 90
80 8.0 20
10 1.0 59
13 1.3 84
96 9.6 37
16 1.6 37
78 7.8 53
59 5.9 70
77 7.7 32
47 4.7 23
36 3.6 60
15 1.5 98
3 0.3 9
10 1.0 39
64 6.4 3
73 7.3 53
35 3.5 5
73 7.3 72

19558
294

[0.5129771220382462 1.1228944808793206 2.007808352245196 4.261431352545854 4.062937496579962 2.3832323513414546 0.5573783981632815 4.046717626540344 3.554189555671506 4.050611405705906 3.218873670891738 3.763333101050427 0.10308747177665407 2.7351610639126465 3.4129090435159832 3.1579614458120204 0.27167952941091866 0.49565708158044297 4.648639417562951 2.8889954416395667 0.48948799060704967 3.5391852385577476 2.5096233243499713 1.8420978813075712 2.702272441815021 1.2441732510275132 1.9278582190941695 0.3018855207057505 0.17510058558022246 0.3879346942669367 0.41521519556292125 3.201001407792636 1.9524396654634635 0.9699233802989765 2.2421378315405796 1.7696913105876935 3.1390791121611317 1.400007722644185 4.340858848230887 2.3106688002066065 0.9512671015887841 4.781077965726801 1.9333588272473703 4.799701361484837 3.570475420029603 2.747101385219535 2.320838488167806 4.165835249925002 1.131543849238868 0.09808034985294979 2.2903043538996983 0.5355581952804742 4.22037821027131 4.730556844135369 3.5038855735485686 1.1878632449755313 1.100622727563867 4.1049339653514165 2.2337460709744885 0.6698437781253448]

[86 42 68 81 66 64 27 98 55 96 78 17 66 50 3 35 47 2 11 20 63 86 86 61 55 82 4 98 8 77 20 2 22 83 22 87 86 19 66 73 25 56 44 48 53 13 84 52 57 38 93 26 79 78 43 34 63 5 54 36]
